7797
[0, 36, 35, 40, 37, 39, 45, 42, 46, 43, 41, 47, 44, 34, 32, 21, 11, 10, 14, 13, 12, 38, 4, 1, 3, 2, 17, 16, 23, 20, 24, 22, 19, 18, 15, 52, 51, 50, 49, 48, 29, 28, 25, 27, 26, 7, 6, 5, 8, 9, 33, 31, 30, 0]
